#AIMD
SYSTEM=RuP_orthorhombic

#DFTD4
ISTART=2
ISMEAR=0
LWAVE=FALSE
LCHARG=FALSE
SIGMA=0.01
ENCUT=650
PREC=Normal
LREAL=A
EDIFF=1e-6
IVDW=13

#Parallelization
NPAR=64

#MD
ISYM=0
IBRION=0
PMASS=1000
MDALGO=3
ISIF=3
LANGEVIN_GAMMA_L=10.0
LANGEVIN_GAMMA =10.0 10.0
NSW=500
POTIM=1
TEBEG=11
TEEND=11


