3D                                      
   1.00000000000000     
     8.4750021592992155    0.1847215207863467    0.0035522603394897
    -1.2896890815139488    6.1960781483079739    0.0039099698317426
     0.0000000000000001   -0.0000000000000105   36.1780967974478571
   Ru   P 
    72    72
Direct
  0.7715062689773416  0.7744916955263148  0.2140060139833003
  0.2289623523093583  0.2331201699969324  0.7851814047886083
  0.7293001987173890  0.2332171320910180  0.4634193873759215
  0.2664872984035134  0.7754093244027604  0.0359837573928995
  0.7706096051452477  0.7734195792704954  0.7131775043452704
  0.2262160624094679  0.2338555363691684  0.2856005512914576
  0.7266372962354732  0.2347304048457365  0.9632758665013172
  0.2686632162406438  0.7731179456229095  0.5345810135356185
  0.0581850741788437  0.5731397856767072  0.1301566601509648
  0.9414837378049746  0.4391130104273608  0.8685676366727390
  0.4396840915825620  0.4389558632309022  0.3802422956047588
  0.5573343065698826  0.5697830706773821  0.1191177735921891
  0.0578402923835280  0.5715535544166112  0.6295493809549396
  0.9414321340893784  0.4374798930867004  0.3683370702762369
  0.4386382472284088  0.4396915888487691  0.8801693561488046
  0.5581585047340470  0.5737658419346203  0.6182477845310834
  0.1030023324140839  0.6142917080125901  0.4684742682330861
  0.8911754417507951  0.3917956913469967  0.5302403208684101
  0.3932128436664036  0.3945171538213931  0.7190642415536741
  0.6038740660830706  0.6142601889937839  0.7795674546376000
  0.1041945020324987  0.6168207454304908  0.9688435612661028
  0.8892948560647292  0.3941349111719077  0.0298551179815914
  0.3946297755417302  0.3923855057230839  0.2190033037411430
  0.6053601748060721  0.6167788631252117  0.2803417993701269
  0.0998782721509480  0.1095659243986738  0.0454046474599964
  0.8982605115467314  0.9064474354213731  0.9530543862661363
  0.3954628501803375  0.9010203167833110  0.2956742401171550
  0.6007138740643907  0.1047707659374380  0.2033524084418257
  0.1007046197539048  0.1036241217804092  0.5456674831012682
  0.8972115995832650  0.9033290282099098  0.4530237938767583
  0.3986281283718264  0.9010638367004111  0.7954207062897024
  0.5985418003780060  0.1076499548852052  0.7029197760366213
  0.2318773521036841  0.7246733762756510  0.1959216585341293
  0.7699939823107449  0.2838719495361720  0.8026058386665149
  0.2684434462680947  0.2842592224473117  0.4460152593221124
  0.7297671021287873  0.7277792206115626  0.0528913059789352
  0.2280783333204168  0.7236818663224510  0.6957172272266684
  0.7657292493139410  0.2820303243328108  0.3020567927172309
  0.2680721913171294  0.2861981953031277  0.9453631714397592
  0.7301954885626548  0.7270438923415388  0.5525055144824369
  0.0894918359941631  0.0779616889617105  0.2148264488280175
  0.9093031386868865  0.9288843513605470  0.7840338191580004
  0.4100899426952633  0.9280240992234716  0.4642497425648031
  0.5861348026504533  0.0787320704760057  0.0343694455527134
  0.0893137260389181  0.0816392615445191  0.7141403742806133
  0.9074245631904370  0.9266915572357460  0.2848228804159422
  0.4066866763428507  0.9298407457899792  0.9649566877365003
  0.5890832875390659  0.0792899367733801  0.5341262422860683
  0.7487132463105642  0.2586067311387465  0.1314255387941758
  0.2476292375823337  0.7538170856848341  0.8673393433729556
  0.7495214147120434  0.7520960112962816  0.3819894002435949
  0.2482028241602557  0.2580295519951847  0.1174120201368588
  0.7469233619127158  0.2571804413154328  0.6315971151927298
  0.2497541692599765  0.7531399629814930  0.3671946784564920
  0.7482915409282678  0.7482743723709283  0.8819864955965387
  0.2482894084247243  0.2574045709281960  0.6165084893162962
  0.9386069948437908  0.9504024744152539  0.1117610333234420
  0.0585161135094644  0.0633436939828555  0.8870047292639945
  0.5597220848480271  0.0636184920379373  0.3615387032793878
  0.4387849670096352  0.9494991093692472  0.1372356839509219
  0.9380075185344942  0.9494777581240451  0.6110059850203782
  0.0588021884397112  0.0608676874973424  0.3875538264288788
  0.5580481771692166  0.0588030708301078  0.8616731977396830
  0.4384524358518513  0.9493807430387310  0.6371740447698716
  0.4191909720387213  0.4204778525807403  0.0486329099461910
  0.5750739049851616  0.5921963510374745  0.9497725503723651
  0.0773242520369598  0.5916034100106780  0.2983280077291802
  0.9228883931092151  0.4180016282416228  0.1998246402687767
  0.4223604720856899  0.4190432757678878  0.5482312045702081
  0.5766819112429047  0.5865180372492621  0.4500707970635204
  0.0783682106859858  0.5888882936336618  0.7986010690975888
  0.9221798248568096  0.4182785988495236  0.6999084445140314
  0.0167418407279848  0.7112687456963919  0.0673087132758926
  0.9777653885037280  0.2973910861976524  0.9314838144144034
  0.4794868364280896  0.2974825368374794  0.3169269880148172
  0.5182012490580956  0.7109489099327566  0.1823334780764733
  0.0172563255521346  0.7078667846603297  0.5667251268580183
  0.9813441840374867  0.2993153162596959  0.4321271021861626
  0.4802929437245673  0.2980277341263167  0.8162624386043333
  0.5163703277974998  0.7124530359601398  0.6813315286012894
  0.3082302486619249  0.6458097033340436  0.0970371354238554
  0.6888059533653903  0.3630571141000087  0.9016787324793273
  0.1902401375673433  0.3645351773087191  0.3468172119020035
  0.8088992805730953  0.6443856818190673  0.1525857096168209
  0.3086454258263985  0.6450011544941769  0.5959022498291523
  0.6901936590366030  0.3644900933028271  0.4019513809799046
  0.1892477389632464  0.3650955300459147  0.8466909481653160
  0.8075632772479190  0.6464220018678685  0.6521685728535247
  0.8620794810782004  0.0496569134584632  0.1744727299341523
  0.1331526069367256  0.9582727624167354  0.8242741600119210
  0.6351119954337042  0.9578745172999084  0.4244771543612757
  0.3617513135534099  0.0519261922516592  0.0747892257194955
  0.8652080663920743  0.0530843173158058  0.6736458523141688
  0.1338323381924402  0.9573990875701736  0.3247678568488029
  0.6329577429961069  0.9559619341953440  0.9244911703922104
  0.3613300427965738  0.0509817943236992  0.5740390319401231
  0.1528284153638523  0.9474057319332981  0.1530155013310024
  0.8438765545093435  0.0612030296650362  0.8461024020837210
  0.3452221358549364  0.0629858838754480  0.4030746924546864
  0.6507488883866989  0.9485337737153783  0.0958935102166300
  0.1530024241988882  0.9463260274447813  0.6529242593542176
  0.8442275447067100  0.0628621334559525  0.3460991650404649
  0.3439179335065448  0.0634176251447611  0.9028429110169834
  0.6529183583427574  0.9502156455535428  0.5958608091182753
  0.1918961144549479  0.3986650898468910  0.0102126221740985
  0.8052967069666686  0.6137557670780773  0.9881397809524400
  0.3052091287739016  0.6079445561187915  0.2604921821448479
  0.6898268082583080  0.3947874001620242  0.2380993710798074
  0.1911408670440765  0.3988873491255845  0.5101381039686302
  0.8030948712265593  0.6126985856165437  0.4888284855590320
  0.3037412275219130  0.6102837129195882  0.7604598519114190
  0.6925963197768793  0.3988246812182846  0.7380610666139438
  0.1462638237863034  0.9825716322085287  0.4862079493796974
  0.8529104805481549  0.0248080905167892  0.5122639330339286
  0.3520997587038084  0.0252671419182993  0.7360515690224432
  0.6466711654576561  0.9857425279217445  0.7625694437318102
  0.1458662955856692  0.9890570548501446  0.9858335088528537
  0.8513864899891435  0.0259076612339125  0.0126731245481050
  0.3509892720529726  0.0218040349089731  0.2360266513246315
  0.6437128670535580  0.9837309744014532  0.2632159726908778
  0.1810707143296688  0.3736919651986359  0.1748418678589615
  0.8182266144228879  0.6363906864207168  0.8237636716159916
  0.3179707525604381  0.6378674542502529  0.4247943002793971
  0.6770557102637462  0.3744504747712732  0.0737178721827283
  0.1807678475388703  0.3744635489354213  0.6745314519760328
  0.8197946146534276  0.6360401720631104  0.3240140655553325
  0.3178979685145531  0.6369106498223535  0.9246324764179367
  0.6787542994090791  0.3766168134315175  0.5738710567482799
  0.9784169341329766  0.2979578901938700  0.0895953427856518
  0.0200232144775642  0.7122000256202381  0.9094337545154219
  0.5188983999229698  0.7148555106399932  0.3397420307320139
  0.4773019155137772  0.2945121870004621  0.1591789822888413
  0.9814901000772336  0.2965514060842630  0.5892837504372482
  0.0156197662243989  0.7112005126220918  0.4089416917750650
  0.5178033979319856  0.7125133651620492  0.8394776339662100
  0.4778061482272780  0.2991290250643794  0.6591656772547957
  0.0201055444017826  0.7161187438732445  0.2391934521274264
  0.9809472153771117  0.2928407545536115  0.7596528538583583
  0.4790711809680582  0.2914921231473074  0.4891533464536522
  0.5191410662914243  0.7156807106569651  0.0097074194511283
  0.0186481897920126  0.7155008271998117  0.7386179441894738
  0.9778035518390089  0.2897291935492049  0.2597559974440925
  0.4779291889940975  0.2931450796247854  0.9888946157698194
  0.5201498949937684  0.7156032858463801  0.5094212197962008
Lattice velocities and vectors
           1
  0.50090349E-04 -0.20209760E-04 -0.66054144E-04
 -0.66641858E-04  0.13445513E-03  0.51304923E-04
 -0.47659168E-04  0.48440875E-04 -0.14445390E-04
  0.84750534E+01  0.18465063E+00  0.34752889E-02
 -0.12897187E+01  0.61962203E+01  0.39712700E-02
  0.56804906E-16 -0.10256519E-13  0.36178082E+02
 
 -0.23371199E-04 -0.31148523E-03  0.19584369E-03
 -0.16458823E-03  0.29693114E-03  0.33074075E-03
  0.12889352E-03 -0.22708739E-03  0.29557316E-04
 -0.31601290E-03 -0.52712974E-05  0.32102230E-03
  0.22573662E-04  0.42054202E-03  0.74479008E-04
  0.15421692E-03 -0.20799680E-03  0.23510254E-03
  0.74889262E-04 -0.34863236E-04 -0.26290999E-03
  0.46870097E-03  0.15218050E-04 -0.24415042E-04
 -0.37708784E-03 -0.44097203E-03 -0.10878339E-03
  0.21634171E-03 -0.21348921E-03 -0.12010753E-04
 -0.78479682E-05  0.13458836E-03 -0.11854365E-03
  0.48983714E-04 -0.70940479E-04 -0.27480815E-03
 -0.14727568E-04 -0.36948275E-04 -0.14862299E-03
 -0.19041411E-03 -0.11876746E-03  0.42996076E-03
 -0.23335749E-03  0.27329024E-04  0.68932318E-04
  0.26149203E-03 -0.12043638E-03  0.89597821E-04
 -0.31153716E-03  0.13990045E-03 -0.15794970E-03
 -0.16953711E-03  0.25982028E-03  0.57033291E-03
  0.12239927E-03 -0.17365041E-03  0.29270993E-03
 -0.29695429E-03 -0.25902454E-03 -0.12696554E-03
 -0.72664206E-04 -0.13639263E-03  0.20909750E-03
  0.66522545E-04 -0.34554486E-03  0.11076560E-03
  0.12922492E-03 -0.49045649E-04 -0.54502814E-03
  0.48978664E-04  0.25083841E-03  0.14927669E-03
  0.30214679E-05 -0.30473855E-03 -0.33227843E-03
  0.59260162E-04 -0.15652730E-04 -0.56145935E-03
  0.12830379E-03  0.95075557E-04  0.30671961E-05
 -0.83719382E-03 -0.90338649E-03  0.18684142E-03
 -0.79088327E-04  0.40492121E-04  0.27120986E-03
 -0.36372558E-03  0.59752179E-03  0.49101722E-03
 -0.46740662E-03  0.72313810E-03  0.33267120E-03
 -0.35524714E-03 -0.28946519E-03 -0.42743170E-03
 -0.10103901E-03 -0.39542438E-03 -0.56583238E-04
  0.85501969E-03 -0.48967275E-03  0.25902349E-03
  0.51416619E-03 -0.15925203E-03 -0.12352699E-03
 -0.61895116E-03 -0.11544180E-03 -0.25938565E-04
  0.44834840E-03  0.12511794E-03  0.38692398E-04
 -0.12637276E-03  0.11712888E-03  0.89786934E-03
  0.27925100E-03  0.40664285E-03 -0.45905071E-04
  0.15013523E-03 -0.28282856E-03  0.98290145E-04
  0.61503082E-04 -0.40802378E-03  0.17017994E-03
  0.22986745E-03  0.18414590E-03  0.18315117E-03
  0.72859905E-04 -0.14869277E-03  0.39972736E-04
  0.11317137E-03 -0.37461894E-03  0.12529539E-03
 -0.14774504E-03 -0.45037634E-04 -0.78328902E-04
  0.15461084E-03  0.15261040E-03  0.33250396E-03
 -0.33904057E-03  0.40175096E-03 -0.34582447E-03
 -0.27375955E-03  0.99000643E-04  0.56980062E-03
 -0.28440709E-03 -0.32955093E-03  0.15557760E-03
  0.51054354E-03  0.81740995E-04  0.19519418E-04
 -0.44459538E-03 -0.11331654E-03  0.34409388E-04
 -0.20160858E-03 -0.43574515E-03 -0.21006755E-03
 -0.28258696E-03 -0.20585489E-03 -0.82979966E-03
  0.73739757E-03  0.16425836E-04 -0.12633684E-03
  0.12614596E-03  0.99437769E-04 -0.17909884E-03
 -0.14466329E-04 -0.27723263E-03 -0.67041730E-04
 -0.14596082E-04  0.40839050E-03 -0.19434182E-03
 -0.20025319E-04  0.22910582E-04 -0.42442993E-03
  0.35556997E-03 -0.98299901E-04  0.20204161E-04
 -0.17024073E-03  0.69051223E-04 -0.31967046E-03
 -0.22315441E-03  0.25205943E-03  0.34497867E-03
 -0.31604986E-03  0.28005744E-03  0.25816400E-03
  0.16270356E-04  0.58591765E-03  0.36056285E-04
 -0.12727647E-03  0.12578811E-03 -0.37807567E-03
 -0.43119349E-03 -0.70709297E-04 -0.14238244E-03
 -0.10906104E-03  0.26926966E-03  0.13097410E-03
  0.52528958E-03 -0.59464880E-03 -0.20799740E-03
  0.99213667E-04  0.42083814E-03  0.31431394E-03
 -0.39385316E-03  0.11727601E-03  0.45021117E-03
 -0.10909792E-03 -0.52823877E-03  0.45398740E-04
  0.66743398E-04 -0.29621260E-03  0.43375501E-03
 -0.22442460E-05  0.16765669E-03  0.32793441E-03
  0.26569220E-03  0.31378325E-03 -0.92426598E-03
  0.12919535E-03 -0.52080808E-03  0.25935848E-04
  0.36513061E-03 -0.27771220E-03  0.10063135E-02
 -0.25267099E-03  0.13627339E-03  0.23134361E-03
 -0.20149608E-03  0.41036948E-03  0.40180632E-03
  0.75754490E-03 -0.35919622E-03 -0.13737688E-04
 -0.85376206E-03  0.25730353E-03 -0.37092889E-03
 -0.44446559E-03 -0.21391330E-03  0.55061212E-03
 -0.15523795E-03  0.89750707E-03 -0.28515692E-03
  0.10674767E-02  0.11643155E-02  0.45341796E-04
 -0.49735967E-03 -0.54803302E-04  0.44879755E-03
 -0.43938326E-03  0.51660711E-03  0.19199857E-03
  0.67457238E-03 -0.99595558E-03 -0.53473067E-03
  0.29153663E-03  0.22945683E-03 -0.63934085E-04
 -0.31517147E-03  0.43704485E-03 -0.51423041E-03
 -0.10280924E-03  0.20686688E-03 -0.62200756E-03
  0.10825103E-03 -0.60314962E-03  0.12308756E-03
 -0.94376758E-05 -0.47521482E-03 -0.18199011E-03
 -0.35860253E-04  0.73667073E-03  0.97589160E-03
 -0.55235084E-03  0.81517465E-04 -0.14726381E-03
 -0.30729698E-03  0.37575177E-03  0.56737081E-03
 -0.85051248E-04  0.63552018E-03 -0.13791960E-03
 -0.24176008E-03 -0.29355007E-03 -0.20364957E-03
 -0.31493332E-04 -0.15467233E-03  0.26362966E-03
  0.29443326E-05 -0.18057834E-03  0.34407169E-04
 -0.14806765E-02 -0.24379395E-03  0.49214719E-03
 -0.11659757E-02  0.88210448E-04  0.35434047E-04
 -0.27081441E-03 -0.24133646E-03 -0.16845370E-03
  0.42721993E-03 -0.43405792E-03  0.16623592E-04
  0.54021019E-03 -0.70256598E-03  0.43887951E-03
 -0.90966195E-04  0.67331166E-03 -0.23634395E-03
 -0.35566596E-03  0.26554264E-03  0.86273588E-03
  0.29312945E-03 -0.42650641E-03 -0.74984943E-03
  0.42503526E-03  0.78518750E-03 -0.13555980E-03
 -0.65189142E-04 -0.13980493E-03 -0.97723518E-03
 -0.15141191E-03  0.54831719E-04 -0.27428894E-03
  0.46686183E-03  0.67805466E-03  0.40920369E-03
  0.68589369E-04 -0.11803052E-03 -0.49410184E-03
 -0.25608408E-03  0.32701576E-03  0.30456624E-03
 -0.10579301E-02  0.58975594E-03  0.29356653E-03
 -0.27696027E-03  0.31825125E-03 -0.78716717E-03
 -0.25309943E-05 -0.50073532E-03  0.14298017E-02
  0.38071237E-03  0.45602269E-03 -0.82065573E-03
 -0.58328510E-03 -0.42427490E-03 -0.64782970E-03
  0.13644000E-02 -0.90813508E-03 -0.24564769E-03
  0.26713265E-03 -0.11680583E-03 -0.58835719E-03
 -0.61978343E-03  0.72232425E-03 -0.21355549E-03
  0.14173115E-02  0.60902918E-04 -0.32957735E-03
  0.10478925E-02  0.32142839E-03  0.66985232E-03
 -0.10061980E-02 -0.68518244E-03  0.34496032E-04
  0.27132915E-03 -0.26076219E-04 -0.24075280E-03
  0.10129580E-02  0.20822829E-03 -0.93376256E-03
 -0.13797532E-03 -0.16920231E-03 -0.20658759E-03
  0.16050482E-03 -0.81516462E-04 -0.56831817E-03
 -0.24486566E-03  0.92556293E-03  0.16906347E-05
  0.60563862E-03 -0.27997046E-03 -0.14887494E-03
  0.86190965E-04 -0.39972319E-03 -0.17058918E-03
  0.12476832E-03 -0.11554362E-04 -0.72591945E-04
 -0.27201494E-03  0.14125323E-03  0.40110468E-03
  0.95445739E-04 -0.77123229E-03  0.28757909E-03
 -0.97424545E-03  0.66084174E-03 -0.12215218E-03
 -0.23606378E-03  0.31711897E-03  0.26752272E-03
  0.30073694E-03 -0.63056677E-03 -0.61109295E-03
  0.17831639E-03  0.34122704E-03  0.74985708E-03
 -0.28099288E-03 -0.82525068E-04  0.77581297E-03
 -0.87670676E-03 -0.17609834E-03 -0.74624248E-03
 -0.84288340E-03  0.10318312E-02  0.18979879E-03
  0.33903216E-03 -0.57080597E-03 -0.19303490E-03
  0.77069004E-03 -0.85355996E-03  0.13387839E-03
 -0.33453683E-03  0.10685412E-03  0.11349271E-02
 -0.10574202E-02  0.33967814E-03  0.10589834E-04
  0.11219600E-02  0.11950745E-02  0.59562166E-03
 
           1
   1.00000000000000     
  0.10000000E+01  0.00000000E+00  0.00000000E+00  0.00000000E+00
  0.77149591E+00  0.77444173E+00  0.21401143E+00
  0.22895028E+00  0.23316845E+00  0.78519054E+00
  0.72930979E+00  0.23318020E+00  0.46342021E+00
  0.26645005E+00  0.77540958E+00  0.35992634E-01
  0.77062254E+00  0.77348706E+00  0.71317955E+00
  0.22622909E+00  0.23382158E+00  0.28560705E+00
  0.72664524E+00  0.23472454E+00  0.96326860E+00
  0.26871864E+00  0.77311875E+00  0.53458033E+00
  0.58130000E-01  0.57307026E+00  0.13015367E+00
  0.94150393E+00  0.43907795E+00  0.86856731E+00
  0.43968646E+00  0.43897751E+00  0.38023902E+00
  0.55733833E+00  0.56977150E+00  0.11911018E+00
  0.57837659E-01  0.57154767E+00  0.62954527E+00
  0.94140686E+00  0.43746148E+00  0.36834896E+00
  0.43861151E+00  0.43969680E+00  0.88017126E+00
  0.55818628E+00  0.57374558E+00  0.61825026E+00
  0.10296916E+00  0.61431527E+00  0.46846990E+00
  0.89116188E+00  0.39183803E+00  0.53025608E+00
  0.39322298E+00  0.39448883E+00  0.71907233E+00
  0.60383285E+00  0.61421961E+00  0.77956395E+00
  0.10418263E+00  0.61679909E+00  0.96884934E+00
  0.88929422E+00  0.39407916E+00  0.29858186E-01
  0.39464376E+00  0.39237717E+00  0.21898824E+00
  0.60537206E+00  0.61681899E+00  0.28034592E+00
  0.99871177E-01  0.10951695E+00  0.45395469E-01
  0.89826709E+00  0.90644471E+00  0.95303887E+00
  0.39548025E+00  0.90103514E+00  0.29567432E+00
  0.60059345E+00  0.10462856E+00  0.20335760E+00
  0.10069632E+00  0.10363090E+00  0.54567498E+00
  0.89718348E+00  0.90342630E+00  0.45303736E+00
  0.39859091E+00  0.90118165E+00  0.79542989E+00
  0.59849300E+00  0.10760469E+00  0.70290797E+00
  0.23185582E+00  0.72461020E+00  0.19592010E+00
  0.77008244E+00  0.28379029E+00  0.80261300E+00
  0.26849995E+00  0.28423184E+00  0.44601184E+00
  0.72969158E+00  0.72776284E+00  0.52890598E-01
  0.22813406E+00  0.72370040E+00  0.69571829E+00
  0.76571727E+00  0.28204958E+00  0.30208161E+00
  0.26811493E+00  0.28626255E+00  0.94536189E+00
  0.73020621E+00  0.72699793E+00  0.55250824E+00
  0.89489084E-01  0.77895921E-01  0.21483116E+00
  0.90933464E+00  0.92891313E+00  0.78403888E+00
  0.41009487E+00  0.92799996E+00  0.46425085E+00
  0.58613894E+00  0.78671488E-01  0.34372915E-01
  0.89295271E-01  0.81632543E-01  0.71413821E+00
  0.90744646E+00  0.92671553E+00  0.28483207E+00
  0.40665667E+00  0.92990648E+00  0.96494712E+00
  0.58905355E+00  0.79306800E-01  0.53414199E+00
  0.74867178E+00  0.25855478E+00  0.13142985E+00
  0.24769120E+00  0.75382843E+00  0.86733988E+00
  0.74946642E+00  0.75207936E+00  0.38199036E+00
  0.24816849E+00  0.25796025E+00  0.11740622E+00
  0.74688514E+00  0.25714836E+00  0.63157419E+00
  0.24984119E+00  0.75314002E+00  0.36719118E+00
  0.74830879E+00  0.74828991E+00  0.88198154E+00
  0.24828093E+00  0.25736008E+00  0.61650664E+00
  0.93861527E+00  0.95046814E+00  0.11175565E+00
  0.58514321E-01  0.63347445E-01  0.88699300E+00
  0.55976145E+00  0.63601455E-01  0.36153926E+00
  0.43876666E+00  0.94951080E+00  0.13722685E+00
  0.93798747E+00  0.94951904E+00  0.61101552E+00
  0.58771912E-01  0.60913788E-01  0.38756096E+00
  0.55806441E+00  0.58897147E-01  0.86167418E+00
  0.43844056E+00  0.94940140E+00  0.63716359E+00
  0.41913859E+00  0.42046800E+00  0.48628980E-01
  0.57506768E+00  0.59223999E+00  0.94977617E+00
  0.77371414E-01  0.59150603E+00  0.29832226E+00
  0.92291034E+00  0.41806889E+00  0.19983332E+00
  0.42231708E+00  0.41906350E+00  0.54824365E+00
  0.57665618E+00  0.58643355E+00  0.45007206E+00
  0.78368808E-01  0.58884047E+00  0.79861306E+00
  0.92218366E+00  0.41830554E+00  0.69991751E+00
  0.16780721E-01  0.71131823E+00  0.67283156E-01
  0.97776783E+00  0.29730696E+00  0.93148454E+00
  0.47952294E+00  0.29743664E+00  0.31695481E+00
  0.51817490E+00  0.71097169E+00  0.18233987E+00
  0.17242691E-01  0.70793342E+00  0.56673623E+00
  0.98142438E+00  0.29925496E+00  0.43212672E+00
  0.48019895E+00  0.29807206E+00  0.81625219E+00
  0.51631289E+00  0.71242022E+00  0.68134676E+00
  0.30823396E+00  0.64595444E+00  0.97029237E-01
  0.68895981E+00  0.36324044E+00  0.90167995E+00
  0.19018038E+00  0.36452811E+00  0.34682962E+00
  0.80886030E+00  0.64447022E+00  0.15259101E+00
  0.30870031E+00  0.64483878E+00  0.59588748E+00
  0.69023351E+00  0.36452594E+00  0.40194961E+00
  0.18922140E+00  0.36516685E+00  0.84667673E+00
  0.80755626E+00  0.64645560E+00  0.65215138E+00
  0.86207745E+00  0.49559632E-01  0.17447614E+00
  0.13313988E+00  0.95819645E+00  0.82426914E+00
  0.63512579E+00  0.95799300E+00  0.42450411E+00
  0.36168843E+00  0.51941222E-01  0.74785160E-01
  0.86518116E+00  0.53145761E-01  0.67366153E+00
  0.13383789E+00  0.95750149E+00  0.32476403E+00
  0.63292217E+00  0.95591562E+00  0.92448555E+00
  0.36132256E+00  0.50957055E-01  0.57404632E+00
  0.15282435E+00  0.94737671E+00  0.15301646E+00
  0.84369667E+00  0.61169045E-01  0.84611603E+00
  0.34508734E+00  0.63004137E-01  0.40307568E+00
  0.65071118E+00  0.94849595E+00  0.95888862E-01
  0.15304199E+00  0.94625480E+00  0.65292472E+00
  0.84427382E+00  0.62747368E-01  0.34611130E+00
  0.34392371E+00  0.63526118E-01  0.90283637E+00
  0.65288307E+00  0.95025955E+00  0.59588465E+00
  0.19192012E+00  0.39859554E+00  0.10191901E-01
  0.80536583E+00  0.61388043E+00  0.98813601E+00
  0.30519805E+00  0.60792232E+00  0.26046517E+00
  0.68981036E+00  0.39479674E+00  0.23809179E+00
  0.19121228E+00  0.39899465E+00  0.51014940E+00
  0.80310004E+00  0.61267938E+00  0.48881483E+00
  0.30371914E+00  0.61033715E+00  0.76046827E+00
  0.69248647E+00  0.39892313E+00  0.73806918E+00
  0.14623907E+00  0.98262373E+00  0.48618619E+00
  0.85289794E+00  0.24727651E-01  0.51230346E+00
  0.35215563E+00  0.25339074E-01  0.73602887E+00
  0.64659228E+00  0.98567641E+00  0.76255155E+00
  0.14600436E+00  0.98890638E+00  0.98582672E+00
  0.85141501E+00  0.25887960E-01  0.12656861E-01
  0.35093413E+00  0.21922253E-01  0.23602074E+00
  0.64388083E+00  0.98373580E+00  0.26320685E+00
  0.18120166E+00  0.37373994E+00  0.17486037E+00
  0.81809167E+00  0.63628413E+00  0.82376465E+00
  0.31800199E+00  0.63786232E+00  0.42478764E+00
  0.67717978E+00  0.37448038E+00  0.73692047E-01
  0.18074750E+00  0.37443685E+00  0.67452575E+00
  0.81981147E+00  0.63602651E+00  0.32399836E+00
  0.31789184E+00  0.63706021E+00  0.92463251E+00
  0.67881859E+00  0.37656971E+00  0.57386694E+00
  0.97841729E+00  0.29789337E+00  0.89590635E-01
  0.20037587E-01  0.71219773E+00  0.90943175E+00
  0.51886990E+00  0.71487916E+00  0.33975312E+00
  0.47729427E+00  0.29438795E+00  0.15918695E+00
  0.98139182E+00  0.29666099E+00  0.58928037E+00
  0.15599791E-01  0.71125229E+00  0.40894908E+00
  0.51782331E+00  0.71241101E+00  0.83946075E+00
  0.47783544E+00  0.29918322E+00  0.65918640E+00
  0.20070521E-01  0.71610647E+00  0.23921490E+00
  0.98083993E+00  0.29281553E+00  0.75963224E+00
  0.47899740E+00  0.29166085E+00  0.48915858E+00
  0.51916693E+00  0.71558782E+00  0.97020915E-02
  0.18717847E-01  0.71536100E+00  0.73862165E+00
  0.97776687E+00  0.28974753E+00  0.25978737E+00
  0.47781329E+00  0.29320335E+00  0.98889491E+00
  0.52031090E+00  0.71579136E+00  0.50943765E+00
  0.00000000E+00  0.00000000E+00  0.00000000E+00
  0.00000000E+00  0.00000000E+00  0.00000000E+00
  0.00000000E+00  0.00000000E+00  0.00000000E+00
  0.00000000E+00  0.00000000E+00  0.00000000E+00
  0.00000000E+00  0.00000000E+00  0.00000000E+00
  0.00000000E+00  0.00000000E+00  0.00000000E+00
  0.00000000E+00  0.00000000E+00  0.00000000E+00
  0.00000000E+00  0.00000000E+00  0.00000000E+00
  0.00000000E+00  0.00000000E+00  0.00000000E+00
  0.00000000E+00  0.00000000E+00  0.00000000E+00
  0.00000000E+00  0.00000000E+00  0.00000000E+00
  0.00000000E+00  0.00000000E+00  0.00000000E+00
  0.00000000E+00  0.00000000E+00  0.00000000E+00
  0.00000000E+00  0.00000000E+00  0.00000000E+00
  0.00000000E+00  0.00000000E+00  0.00000000E+00
  0.00000000E+00  0.00000000E+00  0.00000000E+00
  0.00000000E+00  0.00000000E+00  0.00000000E+00
  0.00000000E+00  0.00000000E+00  0.00000000E+00
  0.00000000E+00  0.00000000E+00  0.00000000E+00
  0.00000000E+00  0.00000000E+00  0.00000000E+00
  0.00000000E+00  0.00000000E+00  0.00000000E+00
  0.00000000E+00  0.00000000E+00  0.00000000E+00
  0.00000000E+00  0.00000000E+00  0.00000000E+00
  0.00000000E+00  0.00000000E+00  0.00000000E+00
  0.00000000E+00  0.00000000E+00  0.00000000E+00
  0.00000000E+00  0.00000000E+00  0.00000000E+00
  0.00000000E+00  0.00000000E+00  0.00000000E+00
  0.00000000E+00  0.00000000E+00  0.00000000E+00
  0.00000000E+00  0.00000000E+00  0.00000000E+00
  0.00000000E+00  0.00000000E+00  0.00000000E+00
  0.00000000E+00  0.00000000E+00  0.00000000E+00
  0.00000000E+00  0.00000000E+00  0.00000000E+00
  0.00000000E+00  0.00000000E+00  0.00000000E+00
  0.00000000E+00  0.00000000E+00  0.00000000E+00
  0.00000000E+00  0.00000000E+00  0.00000000E+00
  0.00000000E+00  0.00000000E+00  0.00000000E+00
  0.00000000E+00  0.00000000E+00  0.00000000E+00
  0.00000000E+00  0.00000000E+00  0.00000000E+00
  0.00000000E+00  0.00000000E+00  0.00000000E+00
  0.00000000E+00  0.00000000E+00  0.00000000E+00
  0.00000000E+00  0.00000000E+00  0.00000000E+00
  0.00000000E+00  0.00000000E+00  0.00000000E+00
  0.00000000E+00  0.00000000E+00  0.00000000E+00
  0.00000000E+00  0.00000000E+00  0.00000000E+00
  0.00000000E+00  0.00000000E+00  0.00000000E+00
  0.00000000E+00  0.00000000E+00  0.00000000E+00
  0.00000000E+00  0.00000000E+00  0.00000000E+00
  0.00000000E+00  0.00000000E+00  0.00000000E+00
  0.00000000E+00  0.00000000E+00  0.00000000E+00
  0.00000000E+00  0.00000000E+00  0.00000000E+00
  0.00000000E+00  0.00000000E+00  0.00000000E+00
  0.00000000E+00  0.00000000E+00  0.00000000E+00
  0.00000000E+00  0.00000000E+00  0.00000000E+00
  0.00000000E+00  0.00000000E+00  0.00000000E+00
  0.00000000E+00  0.00000000E+00  0.00000000E+00
  0.00000000E+00  0.00000000E+00  0.00000000E+00
  0.00000000E+00  0.00000000E+00  0.00000000E+00
  0.00000000E+00  0.00000000E+00  0.00000000E+00
  0.00000000E+00  0.00000000E+00  0.00000000E+00
  0.00000000E+00  0.00000000E+00  0.00000000E+00
  0.00000000E+00  0.00000000E+00  0.00000000E+00
  0.00000000E+00  0.00000000E+00  0.00000000E+00
  0.00000000E+00  0.00000000E+00  0.00000000E+00
  0.00000000E+00  0.00000000E+00  0.00000000E+00
  0.00000000E+00  0.00000000E+00  0.00000000E+00
  0.00000000E+00  0.00000000E+00  0.00000000E+00
  0.00000000E+00  0.00000000E+00  0.00000000E+00
  0.00000000E+00  0.00000000E+00  0.00000000E+00
  0.00000000E+00  0.00000000E+00  0.00000000E+00
  0.00000000E+00  0.00000000E+00  0.00000000E+00
  0.00000000E+00  0.00000000E+00  0.00000000E+00
  0.00000000E+00  0.00000000E+00  0.00000000E+00
  0.00000000E+00  0.00000000E+00  0.00000000E+00
  0.00000000E+00  0.00000000E+00  0.00000000E+00
  0.00000000E+00  0.00000000E+00  0.00000000E+00
  0.00000000E+00  0.00000000E+00  0.00000000E+00
  0.00000000E+00  0.00000000E+00  0.00000000E+00
  0.00000000E+00  0.00000000E+00  0.00000000E+00
  0.00000000E+00  0.00000000E+00  0.00000000E+00
  0.00000000E+00  0.00000000E+00  0.00000000E+00
  0.00000000E+00  0.00000000E+00  0.00000000E+00
  0.00000000E+00  0.00000000E+00  0.00000000E+00
  0.00000000E+00  0.00000000E+00  0.00000000E+00
  0.00000000E+00  0.00000000E+00  0.00000000E+00
  0.00000000E+00  0.00000000E+00  0.00000000E+00
  0.00000000E+00  0.00000000E+00  0.00000000E+00
  0.00000000E+00  0.00000000E+00  0.00000000E+00
  0.00000000E+00  0.00000000E+00  0.00000000E+00
  0.00000000E+00  0.00000000E+00  0.00000000E+00
  0.00000000E+00  0.00000000E+00  0.00000000E+00
  0.00000000E+00  0.00000000E+00  0.00000000E+00
  0.00000000E+00  0.00000000E+00  0.00000000E+00
  0.00000000E+00  0.00000000E+00  0.00000000E+00
  0.00000000E+00  0.00000000E+00  0.00000000E+00
  0.00000000E+00  0.00000000E+00  0.00000000E+00
  0.00000000E+00  0.00000000E+00  0.00000000E+00
  0.00000000E+00  0.00000000E+00  0.00000000E+00
  0.00000000E+00  0.00000000E+00  0.00000000E+00
  0.00000000E+00  0.00000000E+00  0.00000000E+00
  0.00000000E+00  0.00000000E+00  0.00000000E+00
  0.00000000E+00  0.00000000E+00  0.00000000E+00
  0.00000000E+00  0.00000000E+00  0.00000000E+00
  0.00000000E+00  0.00000000E+00  0.00000000E+00
  0.00000000E+00  0.00000000E+00  0.00000000E+00
  0.00000000E+00  0.00000000E+00  0.00000000E+00
  0.00000000E+00  0.00000000E+00  0.00000000E+00
  0.00000000E+00  0.00000000E+00  0.00000000E+00
  0.00000000E+00  0.00000000E+00  0.00000000E+00
  0.00000000E+00  0.00000000E+00  0.00000000E+00
  0.00000000E+00  0.00000000E+00  0.00000000E+00
  0.00000000E+00  0.00000000E+00  0.00000000E+00
  0.00000000E+00  0.00000000E+00  0.00000000E+00
  0.00000000E+00  0.00000000E+00  0.00000000E+00
  0.00000000E+00  0.00000000E+00  0.00000000E+00
  0.00000000E+00  0.00000000E+00  0.00000000E+00
  0.00000000E+00  0.00000000E+00  0.00000000E+00
  0.00000000E+00  0.00000000E+00  0.00000000E+00
  0.00000000E+00  0.00000000E+00  0.00000000E+00
  0.00000000E+00  0.00000000E+00  0.00000000E+00
  0.00000000E+00  0.00000000E+00  0.00000000E+00
  0.00000000E+00  0.00000000E+00  0.00000000E+00
  0.00000000E+00  0.00000000E+00  0.00000000E+00
  0.00000000E+00  0.00000000E+00  0.00000000E+00
  0.00000000E+00  0.00000000E+00  0.00000000E+00
  0.00000000E+00  0.00000000E+00  0.00000000E+00
  0.00000000E+00  0.00000000E+00  0.00000000E+00
  0.00000000E+00  0.00000000E+00  0.00000000E+00
  0.00000000E+00  0.00000000E+00  0.00000000E+00
  0.00000000E+00  0.00000000E+00  0.00000000E+00